40	100	100	100
4	4	7
8	2	9
3	7	1
7	5	7
6	6	6
5	2	6
4	5	2
4	4	5
6	7	7
1	1	1
1	1	4
5	1	6
8	2	7
7	3	1
9	5	3
2	9	7
9	2	6
9	6	7
1	6	1
6	1	6
6	8	7
5	5	6
8	4	2
9	2	4
2	3	3
6	4	4
8	1	2
2	9	7
2	4	2
9	4	2
4	5	5
5	3	4
8	1	2
9	3	4
6	1	7
6	6	6
9	8	1
3	7	3
7	2	8
9	3	3
